p cnf 21 24
c        1 string_SDK_TOOLPREFIX_EQ_xtensa-lx106-elf-
c        2 boolean_COMPILER_WARN_WRITE_STRINGS
c        3 boolean_COMPILER_CXX_EXCEPTIONS
c        4 string_IDF_TARGET_EQ_EMPTY
c        5 string_IDF_TARGET_EQ_IDF_TARGET_NOT_SET
c        6 string_IDF_TARGET_EQ_esp8266
c        7 ENV_string_IDF_TARGET_ENV_ALIAS_IDF_TARGET_EQ_EMPTY
c        8 boolean_SDK_MAKE_WARN_UNDEFINED_VARIABLES
c        9 string_SDK_PYTHON_EQ_python
c       10 ENV_boolean_IDF_CMAKE_ALIAS_IDF_CMAKE
c       11 boolean_COMPILER_STACK_CHECK_MODE_NONE
c       12 boolean_COMPILER_STACK_CHECK_MODE_NORM
c       13 boolean_COMPILER_STACK_CHECK_MODE_STRONG
c       14 boolean_COMPILER_STACK_CHECK_MODE_ALL
c       15 boolean_COMPILER_OPTIMIZATION_LEVEL_DEBUG
c       16 boolean_COMPILER_OPTIMIZATION_LEVEL_RELEASE
c       17 boolean_COMPILER_OPTIMIZATION_ASSERTIONS_ENABLE
c       18 boolean_COMPILER_OPTIMIZATION_ASSERTIONS_SILENT
c       19 boolean_COMPILER_OPTIMIZATION_ASSERTIONS_DISABLE
c       20 boolean_IDF_TARGET_ESP8266
c       21 boolean_COMPILER_STACK_CHECK
-18 -19 0
-20 -18 0
-20 -19 0
20 18 19 0
-16 -17 0
16 17 0
-12 -13 0
-12 -14 0
-15 -12 0
-13 -14 0
-15 -13 0
-15 -14 0
15 12 13 14 0
8 0
2 0
-22 -12 0
22 12 0
-11 -9 0
-7 0
6 0
-5 0
11 10 0
-11 -10 0
-21 0
